InboundTrucks  = 10;
OutboundTrucks = 10;
InboundDoors   = 4;
OutboundDoors  = 4;
ReleaseTime    = [17,72,108,102,97,8,32,15,63,97];
UnloadTime     = [35,11,34,34,16,12,27,22,35,15];
LoadTime       = [18,16,17,11,6,5,20,11,9,5];
TransferTime   = [| 0,0,0,0,0,0,5,7,0,0 | 0,0,0,0,0,0,0,8,6,3 | 6,0,0,0,4,8,0,0,0,0 | 0,0,2,0,0,0,0,0,7,0 | 3,3,0,7,0,0,0,0,0,0 | 0,0,8,0,8,0,0,0,3,0 | 0,0,3,0,5,2,0,0,0,0 | 0,0,2,7,0,0,0,0,0,0 | 0,4,0,2,0,0,0,3,0,0 | 0,0,4,0,0,0,0,0,2,0 |];
